(set-info :smt-lib-version 2.6)
(set-logic QF_LIA)
(set-info :category "industrial")
(set-info :status sat)
(declare-fun x0 () Int)
(declare-fun x1 () Int)
(declare-fun x10 () Int)
(declare-fun x11 () Int)
(declare-fun x12 () Int)
(declare-fun x13 () Int)
(declare-fun x14 () Int)
(declare-fun x15 () Int)
(declare-fun x16 () Int)
(declare-fun x17 () Int)
(declare-fun x18 () Int)
(declare-fun x19 () Int)
(declare-fun x2 () Int)
(declare-fun x20 () Int)
(declare-fun x21 () Int)
(declare-fun x22 () Int)
(declare-fun x23 () Int)
(declare-fun x24 () Int)
(declare-fun x25 () Int)
(declare-fun x26 () Int)
(declare-fun x27 () Int)
(declare-fun x28 () Int)
(declare-fun x29 () Int)
(declare-fun x3 () Int)
(declare-fun x30 () Int)
(declare-fun x31 () Int)
(declare-fun x32 () Int)
(declare-fun x33 () Int)
(declare-fun x34 () Int)
(declare-fun x4 () Int)
(declare-fun x5 () Int)
(declare-fun x6 () Int)
(declare-fun x7 () Int)
(declare-fun x8 () Int)
(declare-fun x9 () Int)
(assert (let ((?v_38 (* 0 x10)) (?v_29 (* 1 x1)) (?v_7 (* 0 x14)) (?v_52 (* 1 x13)) (?v_8 (* 0 x18)) (?v_2 (* 0 x2)) (?v_12 (* 0 x24)) (?v_35 (* 0 x27)) (?v_4 (* 0 x28)) (?v_42 (* 0 x32)) (?v_14 (* 0 x7)) (?v_19 (* 1 x19)) (?v_76 (* 1 x23)) (?v_3 (* 0 x26)) (?v_20 (* 1 x31)) (?v_27 (* 1 x4))) (let ((?v_50 (+ ?v_20 ?v_27)) (?v_5 (* 0 x0)) (?v_46 (* 0 x1)) (?v_6 (* 1 x10)) (?v_60 (* 0 x19)) (?v_10 (* 0 x20)) (?v_11 (* 0 x21)) (?v_49 (* 1 x24)) (?v_18 (* 0 x25)) (?v_69 (* 1 x5)) (?v_13 (* 0 x6)) (?v_15 (* 1 x27)) (?v_44 (* 1 x8)) (?v_64 (* 1 x12)) (?v_47 (* 0 x13)) (?v_17 (* 0 x16)) (?v_24 (* 0 x23)) (?v_34 (* 0 x29)) (?v_43 (* 0 x34)) (?v_26 (* 1 x28)) (?v_73 (* 1 x33)) (?v_28 (* 2 x30)) (?v_36 (* 1 x32)) (?v_22 (* 0 x11)) (?v_33 (* 1 x2)) (?v_48 (* 0 x22)) (?v_77 (* 0 x3)) (?v_25 (* 0 x5)) (?v_99 (* 1 x7)) (?v_32 (* 0 x15)) (?v_74 (* 1 x16)) (?v_72 (* 1 x29)) (?v_59 (* 0 x12)) (?v_61 (* 1 x25)) (?v_68 (* 0 x31)) (?v_56 (* 0 x33)) (?v_90 (* 1 x11)) (?v_66 (* 0 x30)) (?v_81 (* 1 x17)) (?v_67 (* 1 x20)) (?v_78 (* 1 x30)) (?v_98 (* 1 x26)) (?v_86 (* 1 x6)) (?v_75 (* 1 x21)) (?v_85 (* 0 x4)) (?v_79 (* 1 x0)) (?v_71 (* 0 x17))) (let ((?v_88 (+ ?v_73 ?v_44)) (?v_94 (* 0 x8)) (?v_93 (* 1 x14)) (?v_97 (* 1 x18)) (?v_96 (* 1 x15)) (?v_0 (* (- 1) x11)) (?v_1 (* (- 1) x15)) (?v_91 (* (- 1) x16)) (?v_9 (* (- 1) x22)) (?v_16 (* (- 1) x12)) (?v_92 (* (- 1) x33)) (?v_23 (* (- 1) x19)) (?v_41 (* (- 1) x25)) (?v_55 (* (- 1) x9)) (?v_45 (* (- 1) x0)) (?v_37 (* (- 1) x1)) (?v_21 (* (- 1) x10)) (?v_39 (* (- 1) x14)) (?v_40 (* (- 1) x23)) (?v_53 (* (- 1) x27)) (?v_30 (* (- 1) x17)) (?v_82 (* (- 1) x20)) (?v_84 (* (- 1) x7)) (?v_31 (* (- 1) x8)) (?v_51 (* (- 1) x18)) (?v_89 (* (- 1) x34)) (?v_54 (* (- 1) x4)) (?v_57 (* (- 1) x24)) (?v_62 (* (- 1) x26)) (?v_58 (* (- 1) x29)) (?v_63 (* (- 2) x3)) (?v_83 (* (- 1) x32)) (?v_70 (* (- 1) x5)) (?v_65 (* (- 1) x6)) (?v_95 (* (- 1) x2)) (?v_87 (* (- 1) x28)) (?v_80 (* (- 1) x21))) (and (<= (+ ?v_38 (+ ?v_29 (+ (* (- 2) x17) (+ (* (- 2) x29) (+ ?v_0 (+ ?v_7 (+ ?v_52 (+ ?v_1 (+ ?v_91 (+ ?v_9 (+ ?v_8 (+ ?v_2 (+ ?v_12 (+ ?v_35 (+ ?v_4 (+ ?v_42 (+ ?v_14 (+ ?v_19 (+ ?v_76 (+ ?v_3 ?v_50)))))))))))))))))))) 0) (<= (+ ?v_5 (+ ?v_46 (+ ?v_6 (+ ?v_0 (+ ?v_16 (+ ?v_1 (+ ?v_92 (+ ?v_60 (+ ?v_2 (+ ?v_10 (+ ?v_11 (+ ?v_49 (+ ?v_18 (+ ?v_3 (+ ?v_4 (+ ?v_69 (+ (* 3 x4) (+ ?v_13 (+ ?v_15 (+ ?v_44 (* 1 x9))))))))))))))))))))) 0) (<= (+ ?v_5 (+ ?v_6 (+ ?v_64 (+ ?v_47 (+ ?v_7 (+ ?v_1 (+ ?v_17 (+ ?v_8 (+ ?v_23 (+ ?v_2 (+ ?v_9 (+ ?v_41 (+ ?v_55 (+ ?v_10 (+ ?v_11 (+ ?v_24 (+ ?v_12 (+ ?v_34 (+ (* (- 1) x31) (+ ?v_43 (+ ?v_13 (+ ?v_14 (+ ?v_15 (+ ?v_26 (+ ?v_73 (+ ?v_28 ?v_36)))))))))))))))))))))))))) (- 1)) (<= (+ ?v_45 (+ ?v_37 (+ ?v_21 (+ ?v_16 (+ ?v_39 (+ ?v_22 (+ ?v_1 (+ ?v_17 (+ ?v_11 (+ ?v_40 (+ ?v_33 (+ ?v_10 (+ ?v_48 (+ ?v_12 (+ ?v_18 (+ ?v_53 (+ ?v_77 (+ ?v_25 (+ ?v_19 (+ ?v_20 ?v_99)))))))))))))))))))) 1) (<= (+ ?v_21 (+ ?v_5 (+ ?v_16 (+ ?v_7 (+ (* 2 x1) (+ ?v_30 (+ ?v_22 (+ ?v_23 (+ ?v_82 (+ ?v_9 (+ ?v_84 (+ ?v_31 (+ ?v_32 (+ ?v_74 (+ ?v_8 (+ ?v_24 (+ ?v_12 (+ ?v_25 (+ ?v_26 (+ ?v_72 (+ ?v_27 (+ ?v_13 (+ ?v_15 (+ ?v_28 (* 3 x32))))))))))))))))))))))))) (- 1)) (<= (+ ?v_59 (+ ?v_29 (+ (* 2 x10) (+ ?v_30 (+ ?v_51 (+ ?v_23 (+ ?v_89 (+ ?v_54 (+ ?v_31 (+ ?v_32 (+ ?v_33 (+ ?v_10 (+ ?v_12 (+ ?v_34 (+ ?v_25 (+ (* 1 x22) (+ ?v_61 (+ ?v_35 (+ ?v_68 (+ ?v_56 ?v_36)))))))))))))))))))) 1) (<= (+ ?v_5 (+ (* (- 2) x2) (+ (* (- 2) x28) (+ ?v_37 (+ ?v_38 (+ ?v_39 (+ ?v_11 (+ ?v_40 (+ ?v_57 (+ ?v_41 (+ ?v_10 (+ ?v_90 (+ ?v_62 (+ ?v_58 (+ (* (- 1) x3) (+ ?v_35 (+ ?v_66 (+ ?v_42 (+ ?v_43 ?v_44))))))))))))))))))) 1) (<= (+ ?v_45 (+ ?v_31 (+ ?v_46 (+ ?v_38 (+ ?v_47 (+ ?v_32 (+ ?v_17 (+ ?v_8 (+ ?v_48 (+ ?v_24 (+ ?v_34 (+ ?v_25 (+ ?v_14 (+ ?v_81 (+ ?v_33 (+ ?v_67 (+ ?v_49 (+ ?v_35 (+ ?v_78 ?v_50))))))))))))))))))) 0) (<= (+ ?v_45 (+ ?v_63 (+ ?v_0 (+ ?v_16 (+ ?v_7 (+ ?v_17 (+ ?v_30 (+ ?v_51 (+ ?v_9 (+ ?v_41 (+ ?v_52 (+ ?v_49 (+ ?v_53 (+ ?v_83 (+ ?v_54 (+ ?v_70 (+ ?v_55 (+ ?v_32 (+ ?v_10 (+ ?v_34 (+ ?v_56 (+ ?v_43 (+ ?v_98 (+ ?v_20 ?v_86)))))))))))))))))))))))) 0) (<= (+ ?v_57 (+ ?v_58 (+ (* (- 1) x30) (+ ?v_65 (+ ?v_22 (+ ?v_59 (+ ?v_47 (+ ?v_7 (+ ?v_32 (+ ?v_8 (+ ?v_60 (+ ?v_10 (+ ?v_75 (+ ?v_48 (+ ?v_61 (+ ?v_62 (+ ?v_35 (+ ?v_4 (+ ?v_85 (+ ?v_14 ?v_36)))))))))))))))))))) 0) (<= (+ ?v_79 (+ (* (- 2) x1) (+ ?v_21 (+ ?v_63 (+ ?v_64 (+ (* (- 1) x13) (+ ?v_95 (+ ?v_53 (+ ?v_87 (+ ?v_58 (+ ?v_65 (+ ?v_31 (+ ?v_32 (+ ?v_71 (+ ?v_8 (+ ?v_11 (+ ?v_12 (+ ?v_18 (+ ?v_66 (+ ?v_14 (+ ?v_67 (+ ?v_68 (+ ?v_42 (+ ?v_19 (+ ?v_69 (* 2 x34)))))))))))))))))))))))))) 0) (<= (+ ?v_46 (+ ?v_0 (+ ?v_59 (+ ?v_51 (+ ?v_80 (+ ?v_9 (+ ?v_40 (+ ?v_70 (+ ?v_65 (+ ?v_55 (+ ?v_71 (+ ?v_53 (+ ?v_60 (+ ?v_18 (+ ?v_3 (+ ?v_26 (+ ?v_72 (+ (* 1 x3) (+ ?v_66 (+ ?v_68 ?v_88)))))))))))))))))))) 1) (<= (+ ?v_5 (+ ?v_0 (+ ?v_54 (+ ?v_70 (+ ?v_59 (+ ?v_65 (+ ?v_47 (+ ?v_7 (+ ?v_74 (+ ?v_60 (+ ?v_33 (+ ?v_75 (+ ?v_48 (+ ?v_12 (+ ?v_76 (+ ?v_18 (+ ?v_3 (+ ?v_35 (+ ?v_77 (+ ?v_78 (+ ?v_68 (+ ?v_42 (+ ?v_43 (+ ?v_14 ?v_94)))))))))))))))))))))))) 0) (<= (+ ?v_79 (+ ?v_46 (+ ?v_38 (+ (* (- 2) x11) (+ ?v_80 (+ ?v_41 (+ ?v_59 (+ ?v_93 (+ ?v_48 (+ ?v_81 (+ ?v_97 (+ ?v_33 (+ ?v_82 (+ ?v_83 (+ ?v_84 (+ ?v_60 (+ ?v_35 (+ ?v_85 (+ ?v_25 (+ (* 1 x34) (+ ?v_86 (+ ?v_44 (* 2 x26))))))))))))))))))))))) 0) (<= (+ (* 2 x0) (+ ?v_51 (+ ?v_46 (+ ?v_22 (+ (* 2 x12) (+ ?v_47 (+ ?v_7 (+ ?v_17 (+ ?v_60 (+ ?v_2 (+ ?v_11 (+ ?v_48 (+ ?v_24 (+ ?v_12 (+ (* (- 2) x26) (+ ?v_87 (+ ?v_54 (+ ?v_65 (+ ?v_31 (+ ?v_35 (+ ?v_77 (+ ?v_56 ?v_20)))))))))))))))))))))) 0) (<= (+ (* (- 2) x10) (+ ?v_0 (+ ?v_39 (+ ?v_59 (+ ?v_17 (+ ?v_71 (+ ?v_8 (+ ?v_52 (+ (* 2 x2) (+ ?v_82 (+ ?v_9 (+ ?v_70 (+ ?v_55 (+ ?v_3 (+ ?v_35 (+ ?v_34 (+ ?v_26 (+ ?v_68 (+ ?v_43 (+ ?v_85 (+ ?v_36 ?v_88))))))))))))))))))))) (- 1)) (<= (+ ?v_5 (+ ?v_38 (+ ?v_39 (+ ?v_59 (+ ?v_47 (+ ?v_17 (+ ?v_8 (+ ?v_2 (+ ?v_82 (+ ?v_11 (+ ?v_24 (+ ?v_49 (+ ?v_18 (+ ?v_58 (+ ?v_89 (+ ?v_54 (+ ?v_77 (+ ?v_66 (+ ?v_14 (+ ?v_90 (+ ?v_3 (+ ?v_73 ?v_86)))))))))))))))))))))) (- 1)) (<= (+ ?v_37 (+ ?v_91 (+ ?v_87 (+ ?v_58 (+ ?v_92 (+ ?v_22 (+ ?v_93 (+ ?v_8 (+ ?v_33 (+ ?v_48 (+ ?v_42 (+ ?v_43 (+ ?v_13 (+ ?v_94 (+ ?v_96 (+ ?v_76 (+ ?v_49 (+ ?v_61 (+ (* 2 x20) ?v_15))))))))))))))))))) 1) (<= (+ ?v_46 (+ ?v_0 (+ ?v_16 (+ ?v_95 (+ ?v_87 (+ ?v_84 (+ ?v_71 (+ ?v_8 (+ ?v_34 (+ ?v_77 (+ ?v_52 (+ ?v_66 (+ ?v_56 (+ ?v_13 (+ ?v_96 (+ ?v_19 (+ ?v_67 (+ ?v_61 (+ (* 2 x22) (+ ?v_3 (+ ?v_15 (+ ?v_20 ?v_36)))))))))))))))))))))) 0) (<= (+ ?v_38 (+ ?v_79 (+ (* (- 2) x12) (+ (* (- 2) x16) (+ ?v_7 (+ ?v_95 (+ ?v_29 (+ ?v_97 (+ ?v_82 (+ ?v_87 (+ ?v_22 (+ ?v_11 (+ ?v_48 (+ ?v_61 (+ ?v_34 (+ ?v_68 (+ ?v_42 (+ ?v_43 (+ (* 0 x9) (+ ?v_98 (+ ?v_15 (+ ?v_69 ?v_99)))))))))))))))))))))) (- 1)))))))
(check-sat)
(exit)
